c 199_4_checker.cnf
c
c field = 199
c formula set type = 4_checker
c
p cnf 5 28
390 
392 
394 
398 
-400 
391 
393 
395 
399 
-401 
392 
394 
398 
400 
-390 
393 
395 
399 
401 
-391 
392 
394 
398 
400 
-402 
393 
395 
399 
401 
-403 
394 
398 
400 
402 
-392 
395 
399 
401 
403 
-393 
394 
398 
400 
402 
-404 
395 
399 
401 
403 
-405 
398 
400 
402 
404 
-394 
399 
401 
403 
405 
-395 
398 
400 
402 
404 
-406 
399 
401 
403 
405 
-407 
276 
306 
336 
366 
-246 
277 
307 
337 
367 
-247 
276 
306 
336 
366 
-426 
277 
307 
337 
367 
-427 
306 
336 
366 
426 
-276 
307 
337 
367 
427 
-277 
300 
332 
364 
428 
-396 
301 
333 
365 
429 
-397 
284 
312 
340 
368 
-256 
285 
313 
341 
369 
-257 
284 
312 
340 
368 
-424 
285 
313 
341 
369 
-425 
312 
340 
368 
424 
-284 
313 
341 
369 
425 
-285 
